c read Graph
c width = 52
c time = 337 ms
c width = 5
c time = 466 ms
c width = 5
c time = 4177 ms
s td 61 6 65
b 1 1 2 14
b 2 2 3 14 15
b 3 11 12 25 26
b 4 3 14 15 27
b 5 11 25 26 39
b 6 27 40 41 54
b 7 39 51 52 64
b 8 27 41 54 55
b 9 39 51 63 64
b 10 3 4 5 17
b 11 5 6 7 19
b 12 7 8 9 21
b 13 9 10 11 23
b 14 3 15 16 27 28
b 15 11 24 25 38 39
b 16 27 28 41 42 55
b 17 38 39 50 51 63
b 18 27 28 42 55 56
b 19 44 56 57 58
b 20 46 58 59 60
b 21 48 60 61 62
b 22 38 39 50 62 63
b 23 5 17 18 19 31
b 24 7 19 20 21 33
b 25 9 21 22 23 35
b 26 3 16 27 28 42 56
b 27 3 16 28 29 42 56
b 28 3 16 17 29 42 56
b 29 3 5 17 29 42 56
b 30 5 17 29 30 42 56
b 31 5 17 30 42 43 56
b 32 5 17 30 31 43 56
b 33 5 17 19 31 43 56
b 34 5 19 31 43 44 56
b 35 5 7 19 31 44 56
b 36 7 19 31 32 44 56
b 37 32 44 45 46 58
b 38 7 19 32 44 56 58
b 39 7 19 32 44 46 58
b 40 7 19 32 33 46 58
b 41 7 19 21 33 46 58
b 42 7 9 21 33 46 58
b 43 9 21 33 34 46 58
b 44 34 46 47 48 60
b 45 9 21 34 46 58 60
b 46 9 21 34 46 48 60
b 47 9 21 34 35 48 60
b 48 9 21 23 35 48 60
b 49 9 11 23 35 48 60
b 50 11 23 35 36 48 60
b 51 11 23 24 36 48 60
b 52 24 36 37 38 50
b 53 36 48 49 50 62
b 54 11 24 36 48 60 62
b 55 11 24 38 39 50 62
b 56 11 24 36 38 50 62
b 57 11 24 36 48 50 62
b 58 36 48 50 62
b 59 52 64 65
b 60 40 53 54
b 61 12 13 26
1 2
2 4
3 61
3 5
4 14
5 15
6 60
6 8
7 59
7 9
8 16
9 17
10 29
11 35
12 42
13 49
14 26
15 55
16 18
17 22
18 26
19 38
20 45
21 54
22 55
23 33
24 41
25 48
26 27
27 28
28 29
29 30
30 31
31 32
32 33
33 34
34 35
35 36
36 38
37 39
38 39
39 40
40 41
41 42
42 43
43 45
44 46
45 46
46 47
47 48
48 49
49 50
50 51
51 54
52 56
53 58
54 57
55 56
56 57
57 58
